
  32    1
  10

   0   0   3 2 3 6 
  10   1   2 5 4 
   7   3   3 8 7 4 
   1   2   5 17 15 13 11 10 
   7   3   4 15 14 9 8 
   4   3   5 17 15 14 13 11 
   9   6   5 22 17 15 13 12 
   4   4   2 17 11 
   1   3   2 17 11 
  10   4   3 22 14 12 
   1   7   2 22 12 
   4   4   4 24 19 18 16 
   9   4   4 24 19 18 16 
   1   5   3 24 18 16 
   5   3   3 24 20 19 
   6   2   3 23 21 20 
   7   1   3 31 20 19 
   8   2   2 23 21 
  10   5   2 26 23 
   4   4   4 28 27 26 25 
   3   3   4 31 28 27 26 
   5   5   4 31 28 27 25 
   6   7   3 28 27 25 
   3   2   3 31 27 25 
   9   3   2 30 29 
   5   5   2 30 29 
  10   7   1 30 
   7   6   1 29 
  10   3   1 32
   4   7   1 32
   3   6   1 32
   0   0   0 
